lbl,CUST NO.,READY TIME,XCOORD.,YCOORD.,DEMAND,DUE DATE,SERVICE TIME
20,263,69,94,31,18,79,10
20,375,71,101,29,7,81,10
20,278,80,103,25,2,90,10
20,262,102,116,4,13,112,10
20,385,103,88,15,22,113,10
20,103,113,90,4,22,123,10
20,151,150,122,13,27,160,10
20,110,201,104,5,26,211,10
20,183,329,97,9,13,339,10
20,330,333,105,26,24,343,10
20,393,488,110,8,26,498,10
20,234,564,113,14,20,574,10
20,339,628,112,6,39,638,10
